\ Model Staff Scheduling Problem with Shift Overlap Constraints
\ LP format - for model browsing. Use MPS format to capture full model detail.
Minimize
  x[0,0] + x[0,1] + x[0,2] + x[0,3] + x[0,4] + x[0,5] + x[0,6] + x[0,7]
   + x[0,8] + x[0,9] + x[0,10] + x[0,11] + x[1,0] + x[1,1] + x[1,2]
   + x[1,3] + x[1,4] + x[1,5] + x[1,6] + x[1,7] + x[1,8] + x[1,9] + x[1,10]
   + x[1,11] + x[2,0] + x[2,1] + x[2,2] + x[2,3] + x[2,4] + x[2,5] + x[2,6]
   + x[2,7] + x[2,8] + x[2,9] + x[2,10] + x[2,11] + x[3,0] + x[3,1]
   + x[3,2] + x[3,3] + x[3,4] + x[3,5] + x[3,6] + x[3,7] + x[3,8] + x[3,9]
   + x[3,10] + x[3,11] + x[4,0] + x[4,1] + x[4,2] + x[4,3] + x[4,4]
   + x[4,5] + x[4,6] + x[4,7] + x[4,8] + x[4,9] + x[4,10] + x[4,11]
   + x[5,0] + x[5,1] + x[5,2] + x[5,3] + x[5,4] + x[5,5] + x[5,6] + x[5,7]
   + x[5,8] + x[5,9] + x[5,10] + x[5,11] + x[6,0] + x[6,1] + x[6,2]
   + x[6,3] + x[6,4] + x[6,5] + x[6,6] + x[6,7] + x[6,8] + x[6,9] + x[6,10]
   + x[6,11] + x[7,0] + x[7,1] + x[7,2] + x[7,3] + x[7,4] + x[7,5] + x[7,6]
   + x[7,7] + x[7,8] + x[7,9] + x[7,10] + x[7,11] + x[8,0] + x[8,1]
   + x[8,2] + x[8,3] + x[8,4] + x[8,5] + x[8,6] + x[8,7] + x[8,8] + x[8,9]
   + x[8,10] + x[8,11] + x[9,0] + x[9,1] + x[9,2] + x[9,3] + x[9,4]
   + x[9,5] + x[9,6] + x[9,7] + x[9,8] + x[9,9] + x[9,10] + x[9,11]
Subject To
 R0: x[0,0] + x[1,0] + x[2,0] + x[3,0] + x[4,0] + x[5,0] + x[6,0] + x[7,0]
   + x[8,0] + x[9,0] >= 1
 R1: x[0,1] + x[1,1] + x[2,1] + x[3,1] + x[4,1] + x[5,1] + x[6,1] + x[7,1]
   + x[8,1] + x[9,1] >= 1
 R2: x[0,2] + x[1,2] + x[2,2] + x[3,2] + x[4,2] + x[5,2] + x[6,2] + x[7,2]
   + x[8,2] + x[9,2] >= 1
 R3: x[0,3] + x[1,3] + x[2,3] + x[3,3] + x[4,3] + x[5,3] + x[6,3] + x[7,3]
   + x[8,3] + x[9,3] >= 1
 R4: x[0,4] + x[1,4] + x[2,4] + x[3,4] + x[4,4] + x[5,4] + x[6,4] + x[7,4]
   + x[8,4] + x[9,4] >= 1
 R5: x[0,5] + x[1,5] + x[2,5] + x[3,5] + x[4,5] + x[5,5] + x[6,5] + x[7,5]
   + x[8,5] + x[9,5] >= 1
 R6: x[0,6] + x[1,6] + x[2,6] + x[3,6] + x[4,6] + x[5,6] + x[6,6] + x[7,6]
   + x[8,6] + x[9,6] >= 1
 R7: x[0,7] + x[1,7] + x[2,7] + x[3,7] + x[4,7] + x[5,7] + x[6,7] + x[7,7]
   + x[8,7] + x[9,7] >= 1
 R8: x[0,8] + x[1,8] + x[2,8] + x[3,8] + x[4,8] + x[5,8] + x[6,8] + x[7,8]
   + x[8,8] + x[9,8] >= 1
 R9: x[0,9] + x[1,9] + x[2,9] + x[3,9] + x[4,9] + x[5,9] + x[6,9] + x[7,9]
   + x[8,9] + x[9,9] >= 1
 R10: x[0,10] + x[1,10] + x[2,10] + x[3,10] + x[4,10] + x[5,10] + x[6,10]
   + x[7,10] + x[8,10] + x[9,10] >= 1
 R11: x[0,11] + x[1,11] + x[2,11] + x[3,11] + x[4,11] + x[5,11] + x[6,11]
   + x[7,11] + x[8,11] + x[9,11] >= 1
 R12: 9.63 x[0,0] + 5.61 x[0,1] + 11.1 x[0,2] + 6.42 x[0,3] + 5.47 x[0,4]
   + 10.62 x[0,5] + 4.96 x[0,6] + 8.27 x[0,7] + 10.61 x[0,8] + 5.24 x[0,9]
   + 4.58 x[0,10] + 9.07 x[0,11] <= 1e+06
 R13: 9.63 x[1,0] + 5.61 x[1,1] + 11.1 x[1,2] + 6.42 x[1,3] + 5.47 x[1,4]
   + 10.62 x[1,5] + 4.96 x[1,6] + 8.27 x[1,7] + 10.61 x[1,8] + 5.24 x[1,9]
   + 4.58 x[1,10] + 9.07 x[1,11] <= 1e+06
 R14: 9.63 x[2,0] + 5.61 x[2,1] + 11.1 x[2,2] + 6.42 x[2,3] + 5.47 x[2,4]
   + 10.62 x[2,5] + 4.96 x[2,6] + 8.27 x[2,7] + 10.61 x[2,8] + 5.24 x[2,9]
   + 4.58 x[2,10] + 9.07 x[2,11] <= 1e+06
 R15: 9.63 x[3,0] + 5.61 x[3,1] + 11.1 x[3,2] + 6.42 x[3,3] + 5.47 x[3,4]
   + 10.62 x[3,5] + 4.96 x[3,6] + 8.27 x[3,7] + 10.61 x[3,8] + 5.24 x[3,9]
   + 4.58 x[3,10] + 9.07 x[3,11] <= 1e+06
 R16: 9.63 x[4,0] + 5.61 x[4,1] + 11.1 x[4,2] + 6.42 x[4,3] + 5.47 x[4,4]
   + 10.62 x[4,5] + 4.96 x[4,6] + 8.27 x[4,7] + 10.61 x[4,8] + 5.24 x[4,9]
   + 4.58 x[4,10] + 9.07 x[4,11] <= 1e+06
 R17: 9.63 x[5,0] + 5.61 x[5,1] + 11.1 x[5,2] + 6.42 x[5,3] + 5.47 x[5,4]
   + 10.62 x[5,5] + 4.96 x[5,6] + 8.27 x[5,7] + 10.61 x[5,8] + 5.24 x[5,9]
   + 4.58 x[5,10] + 9.07 x[5,11] <= 1e+06
 R18: 9.63 x[6,0] + 5.61 x[6,1] + 11.1 x[6,2] + 6.42 x[6,3] + 5.47 x[6,4]
   + 10.62 x[6,5] + 4.96 x[6,6] + 8.27 x[6,7] + 10.61 x[6,8] + 5.24 x[6,9]
   + 4.58 x[6,10] + 9.07 x[6,11] <= 1e+06
 R19: 9.63 x[7,0] + 5.61 x[7,1] + 11.1 x[7,2] + 6.42 x[7,3] + 5.47 x[7,4]
   + 10.62 x[7,5] + 4.96 x[7,6] + 8.27 x[7,7] + 10.61 x[7,8] + 5.24 x[7,9]
   + 4.58 x[7,10] + 9.07 x[7,11] <= 1e+06
 R20: 9.63 x[8,0] + 5.61 x[8,1] + 11.1 x[8,2] + 6.42 x[8,3] + 5.47 x[8,4]
   + 10.62 x[8,5] + 4.96 x[8,6] + 8.27 x[8,7] + 10.61 x[8,8] + 5.24 x[8,9]
   + 4.58 x[8,10] + 9.07 x[8,11] <= 1e+06
 R21: 9.63 x[9,0] + 5.61 x[9,1] + 11.1 x[9,2] + 6.42 x[9,3] + 5.47 x[9,4]
   + 10.62 x[9,5] + 4.96 x[9,6] + 8.27 x[9,7] + 10.61 x[9,8] + 5.24 x[9,9]
   + 4.58 x[9,10] + 9.07 x[9,11] <= 1e+06
 R22: 9.63 x[0,0] + 9.63 x[1,0] + 9.63 x[2,0] + 9.63 x[3,0] + 9.63 x[4,0]
   + 9.63 x[5,0] + 9.63 x[6,0] + 9.63 x[7,0] + 9.63 x[8,0] + 9.63 x[9,0]
   >= 2.44
 R23: 5.61 x[0,1] + 5.61 x[1,1] + 5.61 x[2,1] + 5.61 x[3,1] + 5.61 x[4,1]
   + 5.61 x[5,1] + 5.61 x[6,1] + 5.61 x[7,1] + 5.61 x[8,1] + 5.61 x[9,1]
   >= 2.44
 R24: 5.61 x[0,1] + 5.61 x[1,1] + 5.61 x[2,1] + 5.61 x[3,1] + 5.61 x[4,1]
   + 5.61 x[5,1] + 5.61 x[6,1] + 5.61 x[7,1] + 5.61 x[8,1] + 5.61 x[9,1]
   >= 2.89
 R25: 11.1 x[0,2] + 11.1 x[1,2] + 11.1 x[2,2] + 11.1 x[3,2] + 11.1 x[4,2]
   + 11.1 x[5,2] + 11.1 x[6,2] + 11.1 x[7,2] + 11.1 x[8,2] + 11.1 x[9,2]
   >= 2.89
 R26: 11.1 x[0,2] + 11.1 x[1,2] + 11.1 x[2,2] + 11.1 x[3,2] + 11.1 x[4,2]
   + 11.1 x[5,2] + 11.1 x[6,2] + 11.1 x[7,2] + 11.1 x[8,2] + 11.1 x[9,2]
   >= 2.33
 R27: 6.42 x[0,3] + 6.42 x[1,3] + 6.42 x[2,3] + 6.42 x[3,3] + 6.42 x[4,3]
   + 6.42 x[5,3] + 6.42 x[6,3] + 6.42 x[7,3] + 6.42 x[8,3] + 6.42 x[9,3]
   >= 2.33
 R28: 6.42 x[0,3] + 6.42 x[1,3] + 6.42 x[2,3] + 6.42 x[3,3] + 6.42 x[4,3]
   + 6.42 x[5,3] + 6.42 x[6,3] + 6.42 x[7,3] + 6.42 x[8,3] + 6.42 x[9,3]
   >= 1.66
 R29: 5.47 x[0,4] + 5.47 x[1,4] + 5.47 x[2,4] + 5.47 x[3,4] + 5.47 x[4,4]
   + 5.47 x[5,4] + 5.47 x[6,4] + 5.47 x[7,4] + 5.47 x[8,4] + 5.47 x[9,4]
   >= 1.66
 R30: 5.47 x[0,4] + 5.47 x[1,4] + 5.47 x[2,4] + 5.47 x[3,4] + 5.47 x[4,4]
   + 5.47 x[5,4] + 5.47 x[6,4] + 5.47 x[7,4] + 5.47 x[8,4] + 5.47 x[9,4]
   >= 2.61
 R31: 10.62 x[0,5] + 10.62 x[1,5] + 10.62 x[2,5] + 10.62 x[3,5]
   + 10.62 x[4,5] + 10.62 x[5,5] + 10.62 x[6,5] + 10.62 x[7,5]
   + 10.62 x[8,5] + 10.62 x[9,5] >= 2.61
 R32: 10.62 x[0,5] + 10.62 x[1,5] + 10.62 x[2,5] + 10.62 x[3,5]
   + 10.62 x[4,5] + 10.62 x[5,5] + 10.62 x[6,5] + 10.62 x[7,5]
   + 10.62 x[8,5] + 10.62 x[9,5] >= 1.42
 R33: 4.96 x[0,6] + 4.96 x[1,6] + 4.96 x[2,6] + 4.96 x[3,6] + 4.96 x[4,6]
   + 4.96 x[5,6] + 4.96 x[6,6] + 4.96 x[7,6] + 4.96 x[8,6] + 4.96 x[9,6]
   >= 1.42
 R34: 4.96 x[0,6] + 4.96 x[1,6] + 4.96 x[2,6] + 4.96 x[3,6] + 4.96 x[4,6]
   + 4.96 x[5,6] + 4.96 x[6,6] + 4.96 x[7,6] + 4.96 x[8,6] + 4.96 x[9,6]
   >= 2.55
 R35: 8.27 x[0,7] + 8.27 x[1,7] + 8.27 x[2,7] + 8.27 x[3,7] + 8.27 x[4,7]
   + 8.27 x[5,7] + 8.27 x[6,7] + 8.27 x[7,7] + 8.27 x[8,7] + 8.27 x[9,7]
   >= 2.55
 R36: 8.27 x[0,7] + 8.27 x[1,7] + 8.27 x[2,7] + 8.27 x[3,7] + 8.27 x[4,7]
   + 8.27 x[5,7] + 8.27 x[6,7] + 8.27 x[7,7] + 8.27 x[8,7] + 8.27 x[9,7]
   >= 2.03
 R37: 10.61 x[0,8] + 10.61 x[1,8] + 10.61 x[2,8] + 10.61 x[3,8]
   + 10.61 x[4,8] + 10.61 x[5,8] + 10.61 x[6,8] + 10.61 x[7,8]
   + 10.61 x[8,8] + 10.61 x[9,8] >= 2.03
 R38: 10.61 x[0,8] + 10.61 x[1,8] + 10.61 x[2,8] + 10.61 x[3,8]
   + 10.61 x[4,8] + 10.61 x[5,8] + 10.61 x[6,8] + 10.61 x[7,8]
   + 10.61 x[8,8] + 10.61 x[9,8] >= 2.49
 R39: 5.24 x[0,9] + 5.24 x[1,9] + 5.24 x[2,9] + 5.24 x[3,9] + 5.24 x[4,9]
   + 5.24 x[5,9] + 5.24 x[6,9] + 5.24 x[7,9] + 5.24 x[8,9] + 5.24 x[9,9]
   >= 2.49
 R40: 5.24 x[0,9] + 5.24 x[1,9] + 5.24 x[2,9] + 5.24 x[3,9] + 5.24 x[4,9]
   + 5.24 x[5,9] + 5.24 x[6,9] + 5.24 x[7,9] + 5.24 x[8,9] + 5.24 x[9,9]
   >= 1.32
 R41: 4.58 x[0,10] + 4.58 x[1,10] + 4.58 x[2,10] + 4.58 x[3,10]
   + 4.58 x[4,10] + 4.58 x[5,10] + 4.58 x[6,10] + 4.58 x[7,10]
   + 4.58 x[8,10] + 4.58 x[9,10] >= 1.32
 R42: 4.58 x[0,10] + 4.58 x[1,10] + 4.58 x[2,10] + 4.58 x[3,10]
   + 4.58 x[4,10] + 4.58 x[5,10] + 4.58 x[6,10] + 4.58 x[7,10]
   + 4.58 x[8,10] + 4.58 x[9,10] >= 1.89
 R43: 9.07 x[0,11] + 9.07 x[1,11] + 9.07 x[2,11] + 9.07 x[3,11]
   + 9.07 x[4,11] + 9.07 x[5,11] + 9.07 x[6,11] + 9.07 x[7,11]
   + 9.07 x[8,11] + 9.07 x[9,11] >= 1.89
Bounds
End
